70
1 0 8
2 0 73
2 1 102
3 0 127
3 1 8
3 2 30
4 0 81
4 1 33
4 2 108
4 3 10
5 0 142
5 1 35
5 2 101
5 3 142
5 4 66
6 0 114
6 1 14
6 2 6
6 3 124
6 4 47
6 5 93
7 0 83
7 1 115
7 2 68
7 3 159
7 4 42
7 5 88
7 6 63
8 0 19
8 1 113
8 2 65
8 3 137
8 4 10
8 5 1
8 6 6
8 7 135
9 0 100
9 1 76
9 2 145
9 3 91
9 4 31
9 5 160
9 6 136
9 7 51
9 8 155
10 0 111
10 1 95
10 2 50
10 3 74
10 4 141
10 5 134
10 6 54
10 7 101
10 8 33
10 9 127
11 0 75
11 1 14
11 2 95
11 3 44
11 4 42
11 5 34
11 6 18
11 7 127
11 8 37
11 9 19
11 10 35
12 0 44
12 1 59
12 2 133
12 3 120
12 4 48
12 5 30
12 6 20
12 7 116
12 8 156
12 9 76
12 10 133
12 11 134
13 0 149
13 1 103
13 2 96
13 3 20
13 4 149
13 5 95
13 6 68
13 7 48
13 8 26
13 9 37
13 10 66
13 11 95
13 12 38
14 0 29
14 1 98
14 2 41
14 3 46
14 4 57
14 5 141
14 6 154
14 7 149
14 8 59
14 9 8
14 10 116
14 11 133
14 12 151
14 13 158
15 0 34
15 1 17
15 2 133
15 3 35
15 4 71
15 5 157
15 6 153
15 7 32
15 8 50
15 9 40
15 10 101
15 11 78
15 12 65
15 13 84
15 14 38
16 0 56
16 1 7
16 2 57
16 3 102
16 4 85
16 5 90
16 6 113
16 7 25
16 8 38
16 9 34
16 10 41
16 11 5
16 12 98
16 13 34
16 14 104
16 15 85
17 0 34
17 1 132
17 2 105
17 3 46
17 4 36
17 5 85
17 6 115
17 7 60
17 8 79
17 9 102
17 10 81
17 11 48
17 12 97
17 13 133
17 14 62
17 15 149
17 16 83
18 0 109
18 1 157
18 2 154
18 3 96
18 4 151
18 5 15
18 6 83
18 7 152
18 8 31
18 9 130
18 10 143
18 11 66
18 12 47
18 13 91
18 14 108
18 15 120
18 16 75
18 17 48
19 0 99
19 1 109
19 2 31
19 3 30
19 4 13
19 5 150
19 6 21
19 7 88
19 8 140
19 9 74
19 10 118
19 11 124
19 12 132
19 13 64
19 14 59
19 15 81
19 16 71
19 17 86
19 18 150
20 0 65
20 1 70
20 2 51
20 3 86
20 4 28
20 5 3
20 6 97
20 7 78
20 8 114
20 9 36
20 10 123
20 11 119
20 12 95
20 13 105
20 14 136
20 15 116
20 16 27
20 17 69
20 18 136
20 19 131
21 0 9
21 1 37
21 2 54
21 3 46
21 4 134
21 5 108
21 6 159
21 7 38
21 8 11
21 9 79
21 10 126
21 11 144
21 12 25
21 13 30
21 14 135
21 15 70
21 16 84
21 17 22
21 18 38
21 19 142
21 20 29
22 0 60
22 1 46
22 2 18
22 3 104
22 4 72
22 5 6
22 6 128
22 7 130
22 8 25
22 9 10
22 10 138
22 11 26
22 12 158
22 13 114
22 14 127
22 15 83
22 16 99
22 17 79
22 18 136
22 19 29
22 20 130
22 21 30
23 0 20
23 1 10
23 2 75
23 3 137
23 4 130
23 5 58
23 6 126
23 7 146
23 8 53
23 9 111
23 10 122
23 11 134
23 12 4
23 13 129
23 14 64
23 15 45
23 16 100
23 17 52
23 18 76
23 19 93
23 20 115
23 21 21
23 22 106
24 0 155
24 1 145
24 2 38
24 3 57
24 4 150
24 5 59
24 6 63
24 7 89
24 8 102
24 9 1
24 10 117
24 11 92
24 12 34
24 13 73
24 14 22
24 15 81
24 16 71
24 17 89
24 18 41
24 19 105
24 20 18
24 21 21
24 22 38
24 23 69
25 0 156
25 1 14
25 2 98
25 3 44
25 4 42
25 5 49
25 6 1
25 7 134
25 8 4
25 9 118
25 10 83
25 11 44
25 12 137
25 13 109
25 14 153
25 15 73
25 16 115
25 17 34
25 18 43
25 19 85
25 20 147
25 21 31
25 22 142
25 23 152
25 24 82
26 0 57
26 1 132
26 2 20
26 3 103
26 4 59
26 5 107
26 6 22
26 7 92
26 8 147
26 9 148
26 10 44
26 11 69
26 12 23
26 13 41
26 14 47
26 15 159
26 16 6
26 17 102
26 18 100
26 19 150
26 20 95
26 21 73
26 22 2
26 23 62
26 24 133
26 25 157
27 0 43
27 1 126
27 2 6
27 3 151
27 4 14
27 5 53
27 6 114
27 7 150
27 8 23
27 9 71
27 10 28
27 11 159
27 12 153
27 13 32
27 14 135
27 15 84
27 16 25
27 17 92
27 18 86
27 19 73
27 20 33
27 21 134
27 22 54
27 23 52
27 24 108
27 25 106
27 26 152
28 0 80
28 1 101
28 2 97
28 3 84
28 4 3
28 5 124
28 6 21
28 7 56
28 8 86
28 9 51
28 10 45
28 11 158
28 12 63
28 13 128
28 14 103
28 15 98
28 16 148
28 17 48
28 18 52
28 19 121
28 20 55
28 21 118
28 22 154
28 23 111
28 24 149
28 25 42
28 26 6
28 27 18
29 0 58
29 1 139
29 2 159
29 3 131
29 4 57
29 5 126
29 6 4
29 7 108
29 8 2
29 9 39
29 10 59
29 11 160
29 12 77
29 13 106
29 14 94
29 15 12
29 16 144
29 17 70
29 18 29
29 19 86
29 20 111
29 21 118
29 22 68
29 23 133
29 24 103
29 25 21
29 26 55
29 27 147
29 28 64
30 0 133
30 1 35
30 2 150
30 3 46
30 4 155
30 5 3
30 6 103
30 7 97
30 8 26
30 9 97
30 10 92
30 11 119
30 12 36
30 13 115
30 14 81
30 15 132
30 16 142
30 17 156
30 18 84
30 19 117
30 20 125
30 21 73
30 22 121
30 23 106
30 24 22
30 25 100
30 26 119
30 27 105
30 28 141
30 29 90
31 0 118
31 1 103
31 2 21
31 3 137
31 4 104
31 5 4
31 6 36
31 7 95
31 8 60
31 9 130
31 10 135
31 11 50
31 12 88
31 13 131
31 14 130
31 15 133
31 16 32
31 17 82
31 18 110
31 19 48
31 20 116
31 21 61
31 22 22
31 23 153
31 24 29
31 25 160
31 26 129
31 27 60
31 28 123
31 29 40
31 30 25
32 0 40
32 1 12
32 2 29
32 3 59
32 4 140
32 5 79
32 6 88
32 7 86
32 8 1
32 9 106
32 10 25
32 11 68
32 12 118
32 13 20
32 14 47
32 15 124
32 16 75
32 17 61
32 18 4
32 19 133
32 20 38
32 21 12
32 22 34
32 23 86
32 24 149
32 25 155
32 26 53
32 27 111
32 28 14
32 29 155
32 30 94
32 31 136
33 0 72
33 1 67
33 2 140
33 3 146
33 4 56
33 5 44
33 6 87
33 7 93
33 8 103
33 9 157
33 10 21
33 11 35
33 12 123
33 13 29
33 14 54
33 15 112
33 16 20
33 17 80
33 18 6
33 19 49
33 20 148
33 21 15
33 22 22
33 23 138
33 24 10
33 25 112
33 26 65
33 27 78
33 28 128
33 29 54
33 30 125
33 31 129
33 32 47
34 0 150
34 1 102
34 2 68
34 3 24
34 4 85
34 5 9
34 6 2
34 7 101
34 8 129
34 9 25
34 10 58
34 11 42
34 12 19
34 13 147
34 14 29
34 15 118
34 16 41
34 17 17
34 18 81
34 19 98
34 20 98
34 21 39
34 22 7
34 23 16
34 24 86
34 25 118
34 26 133
34 27 134
34 28 155
34 29 86
34 30 146
34 31 105
34 32 107
34 33 9
35 0 6
35 1 91
35 2 109
35 3 22
35 4 91
35 5 82
35 6 122
35 7 41
35 8 2
35 9 108
35 10 1
35 11 67
35 12 155
35 13 45
35 14 129
35 15 45
35 16 56
35 17 52
35 18 148
35 19 78
35 20 32
35 21 84
35 22 58
35 23 43
35 24 68
35 25 72
35 26 32
35 27 134
35 28 47
35 29 128
35 30 109
35 31 13
35 32 83
35 33 3
35 34 28
36 0 84
36 1 44
36 2 140
36 3 125
36 4 113
36 5 77
36 6 116
36 7 119
36 8 50
36 9 16
36 10 76
36 11 146
36 12 128
36 13 75
36 14 84
36 15 150
36 16 48
36 17 126
36 18 32
36 19 150
36 20 5
36 21 36
36 22 80
36 23 122
36 24 91
36 25 72
36 26 8
36 27 32
36 28 102
36 29 62
36 30 108
36 31 107
36 32 47
36 33 91
36 34 5
36 35 41
37 0 112
37 1 61
37 2 11
37 3 31
37 4 131
37 5 12
37 6 64
37 7 10
37 8 113
37 9 54
37 10 119
37 11 52
37 12 46
37 13 121
37 14 8
37 15 12
37 16 128
37 17 91
37 18 15
37 19 155
37 20 33
37 21 69
37 22 69
37 23 126
37 24 51
37 25 19
37 26 18
37 27 24
37 28 79
37 29 74
37 30 104
37 31 31
37 32 1
37 33 132
37 34 149
37 35 62
37 36 91
38 0 4
38 1 31
38 2 108
38 3 87
38 4 71
38 5 43
38 6 111
38 7 140
38 8 116
38 9 109
38 10 124
38 11 119
38 12 57
38 13 38
38 14 132
38 15 69
38 16 156
38 17 52
38 18 78
38 19 3
38 20 43
38 21 158
38 22 20
38 23 131
38 24 112
38 25 73
38 26 62
38 27 98
38 28 86
38 29 124
38 30 99
38 31 37
38 32 134
38 33 106
38 34 35
38 35 159
38 36 73
38 37 128
39 0 118
39 1 152
39 2 19
39 3 9
39 4 64
39 5 12
39 6 28
39 7 81
39 8 36
39 9 132
39 10 107
39 11 24
39 12 160
39 13 99
39 14 102
39 15 110
39 16 121
39 17 43
39 18 150
39 19 133
39 20 89
39 21 61
39 22 4
39 23 151
39 24 105
39 25 33
39 26 55
39 27 157
39 28 62
39 29 84
39 30 56
39 31 10
39 32 60
39 33 84
39 34 53
39 35 27
39 36 131
39 37 118
39 38 81
40 0 112
40 1 15
40 2 82
40 3 19
40 4 158
40 5 129
40 6 97
40 7 68
40 8 154
40 9 4
40 10 128
40 11 136
40 12 82
40 13 80
40 14 117
40 15 120
40 16 55
40 17 138
40 18 41
40 19 73
40 20 50
40 21 42
40 22 11
40 23 95
40 24 82
40 25 150
40 26 65
40 27 141
40 28 105
40 29 91
40 30 3
40 31 132
40 32 77
40 33 85
40 34 130
40 35 13
40 36 43
40 37 56
40 38 120
40 39 63
41 0 101
41 1 143
41 2 156
41 3 52
41 4 37
41 5 44
41 6 41
41 7 41
41 8 13
41 9 60
41 10 27
41 11 51
41 12 80
41 13 70
41 14 105
41 15 46
41 16 156
41 17 48
41 18 134
41 19 91
41 20 80
41 21 159
41 22 40
41 23 125
41 24 10
41 25 158
41 26 144
41 27 102
41 28 62
41 29 30
41 30 123
41 31 4
41 32 30
41 33 71
41 34 100
41 35 100
41 36 60
41 37 53
41 38 66
41 39 57
41 40 20
42 0 38
42 1 67
42 2 78
42 3 110
42 4 35
42 5 14
42 6 51
42 7 47
42 8 8
42 9 25
42 10 101
42 11 106
42 12 70
42 13 67
42 14 61
42 15 132
42 16 64
42 17 74
42 18 56
42 19 66
42 20 22
42 21 153
42 22 107
42 23 77
42 24 8
42 25 82
42 26 81
42 27 100
42 28 107
42 29 24
42 30 41
42 31 151
42 32 93
42 33 131
42 34 10
42 35 159
42 36 117
42 37 93
42 38 85
42 39 159
42 40 102
42 41 72
43 0 144
43 1 116
43 2 59
43 3 138
43 4 15
43 5 2
43 6 60
43 7 54
43 8 64
43 9 110
43 10 72
43 11 138
43 12 111
43 13 61
43 14 86
43 15 156
43 16 64
43 17 104
43 18 3
43 19 97
43 20 119
43 21 32
43 22 122
43 23 26
43 24 139
43 25 29
43 26 20
43 27 69
43 28 141
43 29 149
43 30 86
43 31 36
43 32 153
43 33 94
43 34 88
43 35 145
43 36 7
43 37 57
43 38 50
43 39 34
43 40 125
43 41 85
43 42 152
44 0 152
44 1 106
44 2 65
44 3 50
44 4 94
44 5 93
44 6 117
44 7 154
44 8 113
44 9 52
44 10 60
44 11 85
44 12 147
44 13 94
44 14 45
44 15 112
44 16 108
44 17 90
44 18 155
44 19 64
44 20 7
44 21 46
44 22 13
44 23 28
44 24 84
44 25 25
44 26 120
44 27 95
44 28 37
44 29 67
44 30 140
44 31 32
44 32 38
44 33 75
44 34 66
44 35 88
44 36 131
44 37 46
44 38 68
44 39 19
44 40 141
44 41 60
44 42 70
44 43 29
45 0 135
45 1 147
45 2 45
45 3 10
45 4 115
45 5 35
45 6 98
45 7 33
45 8 32
45 9 70
45 10 104
45 11 11
45 12 158
45 13 50
45 14 145
45 15 114
45 16 111
45 17 52
45 18 146
45 19 104
45 20 152
45 21 82
45 22 35
45 23 54
45 24 110
45 25 147
45 26 36
45 27 44
45 28 107
45 29 50
45 30 79
45 31 112
45 32 108
45 33 121
45 34 120
45 35 48
45 36 6
45 37 5
45 38 106
45 39 70
45 40 56
45 41 29
45 42 160
45 43 127
45 44 85
46 0 80
46 1 158
46 2 72
46 3 107
46 4 127
46 5 123
46 6 129
46 7 32
46 8 133
46 9 46
46 10 133
46 11 67
46 12 25
46 13 34
46 14 92
46 15 65
46 16 121
46 17 73
46 18 151
46 19 120
46 20 50
46 21 85
46 22 20
46 23 127
46 24 152
46 25 143
46 26 33
46 27 31
46 28 106
46 29 121
46 30 133
46 31 1
46 32 158
46 33 50
46 34 3
46 35 111
46 36 84
46 37 24
46 38 60
46 39 101
46 40 47
46 41 59
46 42 64
46 43 17
46 44 21
46 45 115
47 0 102
47 1 140
47 2 104
47 3 108
47 4 123
47 5 112
47 6 50
47 7 59
47 8 5
47 9 82
47 10 125
47 11 111
47 12 70
47 13 20
47 14 87
47 15 20
47 16 120
47 17 86
47 18 74
47 19 152
47 20 35
47 21 63
47 22 126
47 23 1
47 24 68
47 25 10
47 26 113
47 27 23
47 28 129
47 29 55
47 30 97
47 31 157
47 32 119
47 33 153
47 34 73
47 35 101
47 36 35
47 37 12
47 38 18
47 39 91
47 40 72
47 41 118
47 42 61
47 43 117
47 44 2
47 45 140
47 46 31
48 0 85
48 1 52
48 2 28
48 3 31
48 4 69
48 5 98
48 6 28
48 7 91
48 8 28
48 9 87
48 10 26
48 11 2
48 12 148
48 13 55
48 14 148
48 15 13
48 16 126
48 17 156
48 18 46
48 19 48
48 20 90
48 21 103
48 22 4
48 23 140
48 24 108
48 25 146
48 26 108
48 27 131
48 28 96
48 29 148
48 30 30
48 31 131
48 32 48
48 33 118
48 34 90
48 35 31
48 36 59
48 37 103
48 38 133
48 39 120
48 40 9
48 41 159
48 42 16
48 43 69
48 44 42
48 45 160
48 46 72
48 47 159
49 0 25
49 1 60
49 2 146
49 3 18
49 4 20
49 5 143
49 6 149
49 7 117
49 8 15
49 9 31
49 10 137
49 11 81
49 12 77
49 13 73
49 14 73
49 15 99
49 16 45
49 17 111
49 18 90
49 19 57
49 20 21
49 21 133
49 22 42
49 23 39
49 24 39
49 25 137
49 26 32
49 27 99
49 28 99
49 29 98
49 30 3
49 31 137
49 32 153
49 33 19
49 34 154
49 35 128
49 36 9
49 37 71
49 38 16
49 39 148
49 40 126
49 41 78
49 42 130
49 43 59
49 44 127
49 45 46
49 46 63
49 47 153
49 48 89
50 0 96
50 1 154
50 2 103
50 3 79
50 4 146
50 5 11
50 6 27
50 7 34
50 8 35
50 9 94
50 10 128
50 11 8
50 12 5
50 13 140
50 14 68
50 15 96
50 16 103
50 17 43
50 18 65
50 19 133
50 20 91
50 21 59
50 22 156
50 23 142
50 24 87
50 25 112
50 26 160
50 27 138
50 28 112
50 29 109
50 30 80
50 31 5
50 32 115
50 33 14
50 34 34
50 35 48
50 36 160
50 37 41
50 38 157
50 39 150
50 40 46
50 41 139
50 42 156
50 43 130
50 44 40
50 45 10
50 46 132
50 47 110
50 48 131
50 49 11
51 0 41
51 1 51
51 2 79
51 3 129
51 4 132
51 5 63
51 6 134
51 7 155
51 8 130
51 9 91
51 10 116
51 11 103
51 12 64
51 13 22
51 14 52
51 15 76
51 16 94
51 17 15
51 18 114
51 19 138
51 20 105
51 21 94
51 22 94
51 23 123
51 24 5
51 25 10
51 26 95
51 27 11
51 28 120
51 29 104
51 30 16
51 31 99
51 32 16
51 33 69
51 34 90
51 35 54
51 36 2
51 37 128
51 38 114
51 39 5
51 40 34
51 41 160
51 42 42
51 43 138
51 44 66
51 45 77
51 46 136
51 47 85
51 48 129
51 49 131
51 50 61
52 0 101
52 1 132
52 2 25
52 3 15
52 4 126
52 5 146
52 6 80
52 7 138
52 8 82
52 9 93
52 10 66
52 11 112
52 12 142
52 13 50
52 14 125
52 15 57
52 16 68
52 17 129
52 18 122
52 19 90
52 20 144
52 21 118
52 22 18
52 23 47
52 24 141
52 25 14
52 26 78
52 27 9
52 28 29
52 29 95
52 30 71
52 31 27
52 32 103
52 33 151
52 34 20
52 35 60
52 36 139
52 37 124
52 38 160
52 39 78
52 40 123
52 41 91
52 42 10
52 43 115
52 44 27
52 45 160
52 46 57
52 47 144
52 48 113
52 49 61
52 50 122
52 51 152
53 0 137
53 1 32
53 2 63
53 3 158
53 4 133
53 5 146
53 6 10
53 7 30
53 8 84
53 9 79
53 10 97
53 11 37
53 12 1
53 13 71
53 14 20
53 15 127
53 16 7
53 17 25
53 18 49
53 19 109
53 20 102
53 21 155
53 22 79
53 23 50
53 24 126
53 25 30
53 26 22
53 27 127
53 28 107
53 29 155
53 30 118
53 31 127
53 32 17
53 33 142
53 34 80
53 35 142
53 36 15
53 37 74
53 38 39
53 39 17
53 40 82
53 41 8
53 42 52
53 43 141
53 44 80
53 45 141
53 46 95
53 47 100
53 48 15
53 49 19
53 50 108
53 51 96
53 52 1
54 0 35
54 1 11
54 2 138
54 3 115
54 4 155
54 5 128
54 6 55
54 7 44
54 8 1
54 9 125
54 10 83
54 11 67
54 12 110
54 13 151
54 14 10
54 15 155
54 16 91
54 17 140
54 18 77
54 19 90
54 20 151
54 21 93
54 22 120
54 23 33
54 24 19
54 25 65
54 26 35
54 27 33
54 28 65
54 29 83
54 30 81
54 31 78
54 32 13
54 33 42
54 34 16
54 35 42
54 36 105
54 37 54
54 38 125
54 39 106
54 40 47
54 41 118
54 42 32
54 43 130
54 44 36
54 45 112
54 46 39
54 47 51
54 48 74
54 49 40
54 50 148
54 51 42
54 52 26
54 53 6
55 0 147
55 1 31
55 2 71
55 3 93
55 4 26
55 5 102
55 6 95
55 7 11
55 8 146
55 9 16
55 10 127
55 11 54
55 12 49
55 13 110
55 14 150
55 15 117
55 16 56
55 17 121
55 18 26
55 19 149
55 20 116
55 21 30
55 22 13
55 23 148
55 24 3
55 25 34
55 26 150
55 27 120
55 28 22
55 29 159
55 30 21
55 31 106
55 32 18
55 33 30
55 34 122
55 35 141
55 36 70
55 37 56
55 38 42
55 39 6
55 40 118
55 41 145
55 42 41
55 43 157
55 44 67
55 45 144
55 46 8
55 47 96
55 48 83
55 49 153
55 50 99
55 51 121
55 52 154
55 53 157
55 54 140
56 0 90
56 1 150
56 2 100
56 3 83
56 4 86
56 5 18
56 6 94
56 7 147
56 8 64
56 9 131
56 10 27
56 11 116
56 12 81
56 13 93
56 14 108
56 15 24
56 16 44
56 17 77
56 18 107
56 19 22
56 20 158
56 21 37
56 22 16
56 23 144
56 24 138
56 25 16
56 26 125
56 27 82
56 28 60
56 29 144
56 30 135
56 31 77
56 32 3
56 33 116
56 34 6
56 35 93
56 36 31
56 37 35
56 38 3
56 39 54
56 40 129
56 41 74
56 42 16
56 43 146
56 44 120
56 45 133
56 46 159
56 47 46
56 48 66
56 49 57
56 50 85
56 51 13
56 52 140
56 53 83
56 54 66
56 55 42
57 0 64
57 1 68
57 2 83
57 3 108
57 4 56
57 5 129
57 6 47
57 7 24
57 8 131
57 9 62
57 10 21
57 11 89
57 12 58
57 13 69
57 14 160
57 15 23
57 16 118
57 17 92
57 18 84
57 19 152
57 20 99
57 21 44
57 22 58
57 23 29
57 24 86
57 25 75
57 26 101
57 27 132
57 28 95
57 29 35
57 30 92
57 31 145
57 32 110
57 33 79
57 34 144
57 35 14
57 36 53
57 37 64
57 38 54
57 39 108
57 40 44
57 41 64
57 42 72
57 43 7
57 44 68
57 45 70
57 46 111
57 47 26
57 48 155
57 49 146
57 50 41
57 51 114
57 52 86
57 53 6
57 54 27
57 55 153
57 56 133
58 0 152
58 1 128
58 2 63
58 3 20
58 4 89
58 5 95
58 6 120
58 7 77
58 8 20
58 9 117
58 10 7
58 11 108
58 12 156
58 13 28
58 14 88
58 15 16
58 16 136
58 17 2
58 18 1
58 19 24
58 20 128
58 21 56
58 22 74
58 23 141
58 24 104
58 25 4
58 26 73
58 27 157
58 28 64
58 29 132
58 30 83
58 31 38
58 32 20
58 33 30
58 34 32
58 35 29
58 36 39
58 37 57
58 38 8
58 39 72
58 40 21
58 41 93
58 42 47
58 43 19
58 44 96
58 45 131
58 46 20
58 47 21
58 48 96
58 49 3
58 50 142
58 51 57
58 52 24
58 53 152
58 54 81
58 55 18
58 56 84
58 57 21
59 0 153
59 1 18
59 2 157
59 3 60
59 4 111
59 5 19
59 6 109
59 7 150
59 8 43
59 9 135
59 10 94
59 11 57
59 12 84
59 13 135
59 14 74
59 15 64
59 16 31
59 17 71
59 18 39
59 19 124
59 20 121
59 21 148
59 22 68
59 23 75
59 24 127
59 25 89
59 26 46
59 27 140
59 28 48
59 29 31
59 30 156
59 31 18
59 32 112
59 33 77
59 34 142
59 35 30
59 36 67
59 37 143
59 38 127
59 39 134
59 40 54
59 41 35
59 42 111
59 43 46
59 44 82
59 45 25
59 46 57
59 47 34
59 48 143
59 49 18
59 50 148
59 51 110
59 52 157
59 53 69
59 54 33
59 55 135
59 56 104
59 57 98
59 58 61
60 0 88
60 1 92
60 2 37
60 3 54
60 4 61
60 5 4
60 6 103
60 7 138
60 8 95
60 9 137
60 10 116
60 11 50
60 12 156
60 13 6
60 14 17
60 15 93
60 16 116
60 17 25
60 18 122
60 19 81
60 20 120
60 21 74
60 22 151
60 23 145
60 24 158
60 25 104
60 26 109
60 27 8
60 28 120
60 29 54
60 30 66
60 31 16
60 32 22
60 33 146
60 34 85
60 35 152
60 36 144
60 37 44
60 38 135
60 39 73
60 40 87
60 41 92
60 42 25
60 43 144
60 44 61
60 45 10
60 46 101
60 47 59
60 48 128
60 49 83
60 50 94
60 51 33
60 52 17
60 53 8
60 54 123
60 55 131
60 56 90
60 57 14
60 58 63
60 59 73
61 0 93
61 1 140
61 2 81
61 3 128
61 4 21
61 5 145
61 6 49
61 7 58
61 8 131
61 9 152
61 10 103
61 11 27
61 12 45
61 13 115
61 14 121
61 15 31
61 16 115
61 17 45
61 18 149
61 19 65
61 20 132
61 21 124
61 22 122
61 23 83
61 24 66
61 25 8
61 26 9
61 27 129
61 28 66
61 29 43
61 30 107
61 31 80
61 32 26
61 33 89
61 34 122
61 35 101
61 36 12
61 37 54
61 38 44
61 39 70
61 40 26
61 41 142
61 42 98
61 43 97
61 44 156
61 45 20
61 46 130
61 47 155
61 48 144
61 49 151
61 50 127
61 51 72
61 52 154
61 53 56
61 54 44
61 55 69
61 56 77
61 57 43
61 58 98
61 59 118
61 60 49
62 0 152
62 1 100
62 2 150
62 3 67
62 4 18
62 5 8
62 6 118
62 7 28
62 8 52
62 9 57
62 10 90
62 11 70
62 12 60
62 13 151
62 14 104
62 15 62
62 16 83
62 17 152
62 18 44
62 19 125
62 20 130
62 21 49
62 22 132
62 23 142
62 24 12
62 25 102
62 26 1
62 27 74
62 28 7
62 29 34
62 30 48
62 31 66
62 32 137
62 33 9
62 34 65
62 35 5
62 36 139
62 37 136
62 38 63
62 39 156
62 40 72
62 41 50
62 42 121
62 43 55
62 44 57
62 45 24
62 46 97
62 47 87
62 48 101
62 49 129
62 50 97
62 51 125
62 52 51
62 53 84
62 54 87
62 55 69
62 56 56
62 57 83
62 58 84
62 59 79
62 60 71
62 61 41
63 0 31
63 1 160
63 2 126
63 3 18
63 4 89
63 5 15
63 6 143
63 7 154
63 8 26
63 9 4
63 10 155
63 11 64
63 12 140
63 13 63
63 14 90
63 15 111
63 16 56
63 17 55
63 18 65
63 19 109
63 20 12
63 21 91
63 22 113
63 23 22
63 24 82
63 25 40
63 26 49
63 27 70
63 28 107
63 29 59
63 30 63
63 31 70
63 32 44
63 33 8
63 34 134
63 35 147
63 36 35
63 37 120
63 38 29
63 39 19
63 40 11
63 41 79
63 42 147
63 43 7
63 44 114
63 45 91
63 46 104
63 47 105
63 48 81
63 49 46
63 50 15
63 51 31
63 52 84
63 53 112
63 54 38
63 55 16
63 56 103
63 57 75
63 58 150
63 59 61
63 60 106
63 61 31
63 62 135
64 0 61
64 1 113
64 2 154
64 3 78
64 4 41
64 5 91
64 6 142
64 7 122
64 8 107
64 9 115
64 10 140
64 11 48
64 12 75
64 13 32
64 14 160
64 15 63
64 16 61
64 17 93
64 18 9
64 19 76
64 20 152
64 21 117
64 22 45
64 23 45
64 24 50
64 25 8
64 26 56
64 27 44
64 28 78
64 29 69
64 30 6
64 31 148
64 32 51
64 33 22
64 34 24
64 35 130
64 36 32
64 37 40
64 38 119
64 39 145
64 40 34
64 41 79
64 42 100
64 43 35
64 44 61
64 45 88
64 46 98
64 47 132
64 48 24
64 49 22
64 50 37
64 51 152
64 52 30
64 53 82
64 54 100
64 55 84
64 56 40
64 57 25
64 58 152
64 59 90
64 60 110
64 61 121
64 62 92
64 63 15
65 0 119
65 1 134
65 2 120
65 3 99
65 4 130
65 5 92
65 6 99
65 7 39
65 8 44
65 9 110
65 10 127
65 11 11
65 12 98
65 13 65
65 14 123
65 15 62
65 16 130
65 17 150
65 18 146
65 19 120
65 20 67
65 21 151
65 22 145
65 23 15
65 24 103
65 25 146
65 26 121
65 27 58
65 28 59
65 29 70
65 30 125
65 31 52
65 32 6
65 33 135
65 34 39
65 35 93
65 36 119
65 37 103
65 38 78
65 39 152
65 40 154
65 41 106
65 42 116
65 43 104
65 44 122
65 45 1
65 46 150
65 47 14
65 48 75
65 49 17
65 50 61
65 51 9
65 52 20
65 53 74
65 54 131
65 55 118
65 56 22
65 57 142
65 58 57
65 59 121
65 60 3
65 61 69
65 62 86
65 63 34
65 64 27
66 0 26
66 1 22
66 2 70
66 3 151
66 4 83
66 5 107
66 6 140
66 7 97
66 8 1
66 9 110
66 10 57
66 11 141
66 12 53
66 13 56
66 14 107
66 15 18
66 16 46
66 17 125
66 18 31
66 19 59
66 20 5
66 21 37
66 22 153
66 23 146
66 24 77
66 25 17
66 26 78
66 27 146
66 28 6
66 29 54
66 30 27
66 31 53
66 32 138
66 33 97
66 34 19
66 35 44
66 36 60
66 37 78
66 38 114
66 39 68
66 40 112
66 41 83
66 42 50
66 43 18
66 44 43
66 45 105
66 46 120
66 47 46
66 48 128
66 49 117
66 50 117
66 51 78
66 52 54
66 53 134
66 54 30
66 55 62
66 56 7
66 57 124
66 58 17
66 59 117
66 60 4
66 61 144
66 62 91
66 63 92
66 64 47
66 65 23
67 0 144
67 1 32
67 2 107
67 3 150
67 4 28
67 5 29
67 6 42
67 7 52
67 8 86
67 9 57
67 10 122
67 11 93
67 12 158
67 13 120
67 14 126
67 15 3
67 16 112
67 17 116
67 18 142
67 19 133
67 20 149
67 21 135
67 22 8
67 23 29
67 24 23
67 25 38
67 26 129
67 27 138
67 28 143
67 29 82
67 30 32
67 31 38
67 32 92
67 33 66
67 34 44
67 35 50
67 36 17
67 37 134
67 38 146
67 39 12
67 40 17
67 41 144
67 42 158
67 43 91
67 44 40
67 45 17
67 46 61
67 47 38
67 48 113
67 49 143
67 50 33
67 51 86
67 52 149
67 53 13
67 54 39
67 55 142
67 56 40
67 57 150
67 58 94
67 59 65
67 60 146
67 61 150
67 62 141
67 63 2
67 64 99
67 65 82
67 66 105
68 0 142
68 1 108
68 2 34
68 3 113
68 4 52
68 5 48
68 6 18
68 7 76
68 8 74
68 9 117
68 10 79
68 11 138
68 12 73
68 13 16
68 14 8
68 15 159
68 16 14
68 17 51
68 18 17
68 19 129
68 20 135
68 21 60
68 22 113
68 23 85
68 24 149
68 25 131
68 26 78
68 27 60
68 28 141
68 29 49
68 30 105
68 31 2
68 32 90
68 33 82
68 34 103
68 35 118
68 36 131
68 37 122
68 38 13
68 39 47
68 40 21
68 41 24
68 42 37
68 43 128
68 44 137
68 45 24
68 46 17
68 47 38
68 48 10
68 49 123
68 50 119
68 51 80
68 52 1
68 53 144
68 54 80
68 55 144
68 56 114
68 57 61
68 58 50
68 59 93
68 60 35
68 61 146
68 62 33
68 63 70
68 64 83
68 65 143
68 66 100
68 67 38
69 0 29
69 1 104
69 2 41
69 3 32
69 4 26
69 5 142
69 6 74
69 7 35
69 8 65
69 9 26
69 10 86
69 11 68
69 12 26
69 13 107
69 14 53
69 15 134
69 16 11
69 17 127
69 18 153
69 19 34
69 20 86
69 21 19
69 22 115
69 23 72
69 24 160
69 25 135
69 26 64
69 27 14
69 28 141
69 29 135
69 30 78
69 31 125
69 32 86
69 33 128
69 34 21
69 35 124
69 36 76
69 37 22
69 38 131
69 39 122
69 40 83
69 41 108
69 42 2
69 43 107
69 44 136
69 45 41
69 46 55
69 47 38
69 48 6
69 49 129
69 50 12
69 51 69
69 52 63
69 53 73
69 54 134
69 55 16
69 56 75
69 57 126
69 58 158
69 59 51
69 60 60
69 61 55
69 62 5
69 63 65
69 64 35
69 65 142
69 66 142
69 67 100
69 68 3
